n_res = 4;
rc = [ 16, 7, 12, 19 ];
n_tasks = 30;
d = [ 9, 4, 2, 10, 1, 1, 5, 8, 3, 9, 9, 5, 6, 4, 7, 6, 4, 10, 5, 8, 2, 8, 3, 7, 7, 4, 9, 9, 7, 5 ];
rr = [| 0, 0, 5, 0, 0, 3, 0, 10, 0, 0, 0, 5, 0, 4, 0, 0, 6, 0, 0, 0, 0, 1, 0, 0, 0, 0, 0, 0, 0, 0
      | 0, 5, 0, 0, 0, 0, 0, 0, 0, 0, 0, 0, 0, 0, 6, 0, 0, 0, 0, 0, 2, 0, 1, 5, 0, 0, 0, 0, 0, 0
      | 0, 0, 0, 0, 0, 0, 5, 0, 0, 0, 0, 0, 0, 0, 0, 0, 0, 7, 3, 1, 0, 0, 0, 0, 0, 7, 0, 6, 9, 2
      | 8, 0, 0, 8, 10, 0, 0, 0, 2, 3, 5, 0, 10, 0, 0, 7, 0, 0, 0, 0, 0, 0, 0, 0, 3, 0, 9, 0, 0, 0 |];
suc = [ { 2 }, 
        { 1 }, 
        { 4 }, 
        { 3 }, 
        { 6 }, 
        { 5 }, 
        { 8 }, 
        { 7 }, 
        { 10 }, 
        { 9 }, 
        { 12 }, 
        { 11 }, 
        { 14 }, 
        { 13 }, 
        { 16 }, 
        { 15 }, 
        { 18 }, 
        { 17 }, 
        { 20 }, 
        { 19 }, 
        { 22 }, 
        { 21 }, 
        { 24 }, 
        { 23 }, 
        { 26 }, 
        { 25 }, 
        { 28 }, 
        { 27 }, 
        { 30 }, 
        { 29 }]; 
